k = 76;
b = 38;
AtomicConstraints =  [|
12, 1|
	12, 11|
	13, 1|
	13, 11|
	13, 23|
	14, 23|
	14, 30|
	14, 31|
	15, 23|
	15, 30|
	15, 31|
	15, 32|
	16, 30|
	16, 31|
	16, 32|
	16, 33|
	17, 31|
	17, 32|
	17, 33|
	17, 34|
	18, 2|
	18, 32|
	18, 33|
	18, 34|
	19, 2|
	19, 3|
	19, 33|
	19, 34|
	20, 2|
	20, 3|
	20, 4|
	20, 34|
	21, 2|
	21, 3|
	21, 4|
	21, 5|
	22, 3|
	22, 4|
	22, 5|
	22, 6|
	24, 4|
	24, 5|
	24, 6|
	24, 7|
	25, 5|
	25, 6|
	25, 7|
	25, 8|
	26, 6|
	26, 7|
	26, 8|
	27, 7|
	27, 8|
	27, 9|
	28, 9|
	28, 10|
	29, 9|
	29, 10|
	52, 69|
	52, 61|
	52, 68|
	53, 69|
	53, 61|
	53, 68|
	54, 69|
	54, 68|
	35, 66|
	42, 69|
	42, 66|
	42, 67|
	42, 47|
	42, 48|
	42, 53|
	42, 54|
	42, 35|
	42, 68|
	43, 69|
	43, 66|
	43, 67|
	43, 47|
	43, 48|
	43, 54|
	43, 35|
	73, 66|
	73, 67|
	73, 47|
	73, 48|
	73, 35|
	58, 52|
	58, 69|
	58, 66|
	58, 67|
	58, 47|
	58, 48|
	58, 53|
	58, 54|
	58, 35|
	58, 61|
	58, 68|
	58, 42|
	58, 40|
	58, 41|
	59, 52|
	59, 69|
	59, 66|
	59, 67|
	59, 47|
	59, 48|
	59, 53|
	59, 54|
	59, 35|
	59, 61|
	59, 68|
	59, 42|
	59, 43|
	59, 40|
	59, 41|
	60, 69|
	60, 66|
	60, 67|
	60, 47|
	60, 48|
	60, 53|
	60, 54|
	60, 35|
	60, 68|
	60, 42|
	60, 43|
	60, 73|
	60, 41|
	62, 69|
	62, 66|
	62, 67|
	62, 47|
	62, 48|
	62, 54|
	62, 35|
	62, 42|
	62, 43|
	62, 73|
	40, 52|
	40, 69|
	40, 66|
	40, 67|
	40, 47|
	40, 48|
	40, 53|
	40, 54|
	40, 35|
	40, 61|
	40, 68|
	41, 52|
	41, 69|
	41, 66|
	41, 67|
	41, 47|
	41, 48|
	41, 53|
	41, 54|
	41, 35|
	41, 61|
	41, 68|
	46, 69|
	46, 66|
	46, 67|
	46, 47|
	46, 48|
	46, 54|
	46, 35|
	46, 42|
	46, 43|
	46, 73|
	46, 59|
	46, 60|
	46, 62|
	46, 41|
	63, 52|
	63, 69|
	63, 66|
	63, 67|
	63, 47|
	63, 48|
	63, 53|
	63, 54|
	63, 35|
	63, 61|
	63, 68|
	63, 58|
	63, 42|
	63, 43|
	63, 73|
	63, 59|
	63, 60|
	63, 62|
	63, 40|
	63, 41|
	63, 46|
	63, 44|
	63, 45|
	64, 69|
	64, 66|
	64, 67|
	64, 47|
	64, 48|
	64, 53|
	64, 54|
	64, 35|
	64, 68|
	64, 58|
	64, 42|
	64, 43|
	64, 73|
	64, 59|
	64, 60|
	64, 62|
	64, 40|
	64, 41|
	64, 46|
	64, 44|
	64, 45|
	65, 69|
	65, 66|
	65, 67|
	65, 47|
	65, 48|
	65, 54|
	65, 35|
	65, 42|
	65, 43|
	65, 73|
	65, 59|
	65, 60|
	65, 62|
	65, 41|
	65, 46|
	65, 45|
	36, 66|
	36, 67|
	36, 47|
	36, 48|
	36, 35|
	36, 43|
	36, 73|
	36, 62|
	37, 66|
	37, 67|
	37, 47|
	37, 48|
	37, 35|
	37, 73|
	38, 66|
	38, 67|
	38, 47|
	38, 48|
	44, 52|
	44, 69|
	44, 66|
	44, 67|
	44, 47|
	44, 48|
	44, 53|
	44, 54|
	44, 35|
	44, 61|
	44, 68|
	44, 58|
	44, 42|
	44, 43|
	44, 73|
	44, 59|
	44, 60|
	44, 62|
	44, 40|
	44, 41|
	45, 69|
	45, 66|
	45, 67|
	45, 47|
	45, 48|
	45, 53|
	45, 54|
	45, 35|
	45, 68|
	45, 58|
	45, 42|
	45, 43|
	45, 73|
	45, 59|
	45, 60|
	45, 62|
	45, 40|
	45, 41|
	72, 66|
	72, 67|
	72, 47|
	72, 48|
	72, 35|
	72, 42|
	72, 43|
	72, 73|
	72, 60|
	72, 62|
	72, 46|
	72, 64|
	72, 65|
	72, 36|
	72, 37|
	72, 38|
	72, 45|
	74, 66|
	74, 67|
	74, 47|
	74, 48|
	74, 35|
	74, 43|
	74, 73|
	74, 62|
	74, 46|
	74, 65|
	74, 36|
	74, 37|
	74, 38|
	75, 66|
	75, 67|
	75, 47|
	75, 48|
	75, 35|
	75, 73|
	75, 36|
	75, 37|
	75, 38|
	76, 66|
	76, 67|
	76, 47|
	76, 48|
	76, 35|
	76, 73|
	76, 36|
	76, 37|
	76, 38|
	51, 66|
	51, 67|
	51, 47|
	51, 48|
	51, 37|
	51, 38|
	50, 67|
	50, 47|
	50, 48|
	50, 38|
	39, 47|
	39, 48|
	49, 48|
	55, 69|
	55, 66|
	55, 67|
	55, 47|
	55, 48|
	55, 53|
	55, 54|
	55, 35|
	55, 68|
	55, 58|
	55, 42|
	55, 43|
	55, 73|
	55, 59|
	55, 60|
	55, 62|
	55, 40|
	55, 41|
	55, 63|
	55, 46|
	55, 64|
	55, 65|
	55, 36|
	55, 37|
	55, 38|
	55, 44|
	55, 45|
	55, 72|
	55, 70|
	55, 71|
	56, 69|
	56, 66|
	56, 67|
	56, 47|
	56, 48|
	56, 54|
	56, 35|
	56, 42|
	56, 43|
	56, 73|
	56, 59|
	56, 60|
	56, 62|
	56, 41|
	56, 63|
	56, 46|
	56, 64|
	56, 65|
	56, 36|
	56, 37|
	56, 38|
	56, 44|
	56, 45|
	56, 72|
	56, 74|
	56, 70|
	56, 71|
	57, 66|
	57, 67|
	57, 47|
	57, 48|
	57, 35|
	57, 42|
	57, 43|
	57, 73|
	57, 60|
	57, 62|
	57, 46|
	57, 64|
	57, 65|
	57, 36|
	57, 37|
	57, 38|
	57, 45|
	57, 72|
	57, 74|
	57, 75|
	57, 71|
	70, 69|
	70, 66|
	70, 67|
	70, 47|
	70, 48|
	70, 53|
	70, 54|
	70, 35|
	70, 68|
	70, 58|
	70, 42|
	70, 43|
	70, 73|
	70, 59|
	70, 60|
	70, 62|
	70, 40|
	70, 41|
	70, 63|
	70, 46|
	70, 64|
	70, 65|
	70, 36|
	70, 37|
	70, 38|
	70, 44|
	70, 45|
	71, 69|
	71, 66|
	71, 67|
	71, 47|
	71, 48|
	71, 54|
	71, 35|
	71, 42|
	71, 43|
	71, 73|
	71, 59|
	71, 60|
	71, 62|
	71, 41|
	71, 63|
	71, 46|
	71, 64|
	71, 65|
	71, 36|
	71, 37|
	71, 38|
	71, 44|
	71, 45|];
DisjunctiveConstraints =  [|2, 34, 2, 3|
	3, 2, 3, 4|
	4, 3, 4, 5|
	5, 4, 5, 6|
	6, 5, 6, 7|
	7, 6, 7, 8|
	8, 7, 8, 9|
	9, 8, 9, 10|
	13, 12, 13, 14|
	11, 1, 11, 23|
	14, 13, 14, 15|
	15, 14, 15, 16|
	16, 15, 16, 17|
	17, 16, 17, 18|
	18, 17, 18, 19|
	19, 18, 19, 20|
	20, 19, 20, 21|
	21, 20, 21, 22|
	22, 21, 22, 24|
	24, 22, 24, 25|
	25, 24, 25, 26|
	26, 25, 26, 27|
	27, 26, 27, 28|
	28, 27, 28, 29|
	23, 11, 23, 30|
	30, 23, 30, 31|
	31, 30, 31, 32|
	32, 31, 32, 33|
	33, 32, 33, 34|
	34, 33, 34, 2|
	67, 66, 67, 47|
	47, 67, 47, 48|
	53, 52, 53, 54|
	54, 53, 54, 35|
	68, 61, 68, 69|
	42, 16, 42, 54|
	42, 31, 42, 69|
	42, 53, 15, 42|
	42, 68, 30, 42|
	42, 41, 42, 43|
	43, 69, 31, 43|
	43, 54, 16, 43|
	43, 42, 43, 73|
	58, 14, 58, 52|
	58, 15, 58, 53|
	58, 23, 58, 61|
	58, 30, 58, 68|
	59, 15, 59, 53|
	59, 16, 59, 54|
	59, 30, 59, 68|
	59, 31, 59, 69|
	59, 52, 14, 59|
	59, 61, 23, 59|
	59, 58, 59, 60|
	60, 16, 60, 54|
	60, 31, 60, 69|
	60, 53, 15, 60|
	60, 61, 23, 60|
	60, 68, 30, 60|
	60, 59, 60, 62|
	62, 69, 31, 62|
	62, 53, 15, 62|
	62, 54, 16, 62|
	62, 68, 30, 62|
	40, 14, 40, 52|
	40, 15, 40, 53|
	40, 23, 40, 61|
	40, 30, 40, 68|
	41, 15, 41, 53|
	41, 16, 41, 54|
	41, 30, 41, 68|
	41, 31, 41, 69|
	41, 52, 14, 41|
	41, 61, 23, 41|
	41, 40, 41, 42|
	46, 4, 46, 42|
	46, 5, 46, 43|
	46, 22, 46, 60|
	46, 24, 46, 62|
	46, 52, 14, 46|
	46, 61, 23, 46|
	46, 59, 21, 46|
	46, 40, 2, 46|
	46, 41, 3, 46|
	63, 2, 63, 40|
	63, 3, 63, 41|
	63, 15, 63, 53|
	63, 20, 63, 58|
	63, 21, 63, 59|
	63, 30, 63, 68|
	64, 3, 64, 41|
	64, 4, 64, 42|
	64, 16, 64, 54|
	64, 21, 64, 59|
	64, 22, 64, 60|
	64, 31, 64, 69|
	64, 58, 20, 64|
	64, 40, 2, 64|
	64, 63, 64, 65|
	65, 4, 65, 42|
	65, 5, 65, 43|
	65, 22, 65, 60|
	65, 24, 65, 62|
	65, 52, 14, 65|
	65, 58, 20, 65|
	65, 59, 21, 65|
	65, 40, 2, 65|
	65, 41, 3, 65|
	65, 64, 65, 36|
	36, 69, 31, 36|
	36, 53, 15, 36|
	36, 54, 16, 36|
	36, 35, 36, 73|
	36, 68, 30, 36|
	36, 42, 4, 36|
	36, 43, 5, 36|
	36, 62, 24, 36|
	36, 65, 36, 37|
	37, 28, 37, 66|
	37, 69, 31, 37|
	37, 54, 16, 37|
	37, 43, 5, 37|
	37, 73, 35, 37|
	37, 36, 37, 38|
	38, 29, 38, 67|
	38, 35, 73, 38|
	38, 73, 35, 38|
	44, 2, 44, 40|
	44, 3, 44, 41|
	44, 15, 44, 53|
	44, 20, 44, 58|
	44, 21, 44, 59|
	44, 30, 44, 68|
	45, 3, 45, 41|
	45, 4, 45, 42|
	45, 16, 45, 54|
	45, 21, 45, 59|
	45, 22, 45, 60|
	45, 31, 45, 69|
	45, 58, 20, 45|
	45, 40, 2, 45|
	45, 44, 45, 46|
	72, 5, 72, 43|
	72, 24, 72, 62|
	72, 27, 72, 65|
	72, 58, 20, 72|
	72, 46, 72, 8|
	72, 64, 26, 72|
	72, 44, 6, 72|
	72, 45, 7, 72|
	72, 71, 72, 74|
	74, 58, 20, 74|
	74, 59, 21, 74|
	74, 40, 2, 74|
	74, 41, 3, 74|
	74, 46, 8, 74|
	74, 65, 27, 74|
	74, 45, 7, 74|
	74, 72, 74, 75|
	75, 28, 75, 66|
	75, 52, 14, 75|
	75, 35, 75, 73|
	75, 61, 23, 75|
	75, 42, 4, 75|
	75, 59, 21, 75|
	75, 60, 22, 75|
	75, 41, 3, 75|
	75, 46, 8, 75|
	75, 36, 75, 74|
	75, 74, 75, 76|
	76, 28, 76, 66|
	76, 29, 76, 67|
	76, 53, 15, 76|
	76, 68, 30, 76|
	76, 42, 4, 76|
	76, 43, 5, 76|
	76, 60, 22, 76|
	76, 62, 24, 76|
	76, 36, 74, 76|
	76, 37, 76, 75|
	76, 75, 76, 51|
	51, 9, 51, 47|
	51, 29, 51, 67|
	51, 69, 31, 51|
	51, 54, 16, 51|
	51, 43, 5, 51|
	51, 73, 35, 51|
	51, 62, 24, 51|
	51, 37, 75, 51|
	51, 38, 51, 76|
	51, 76, 51, 50|
	50, 9, 50, 47|
	50, 48, 50, 10|
	50, 73, 35, 50|
	50, 38, 76, 50|
	50, 51, 50, 39|
	39, 48, 39, 10|
	39, 35, 73, 39|
	39, 50, 39, 49|
	55, 3, 55, 41|
	55, 15, 55, 53|
	55, 16, 55, 54|
	55, 21, 55, 59|
	55, 25, 55, 63|
	55, 26, 55, 64|
	55, 30, 55, 68|
	55, 31, 55, 69|
	55, 44, 55, 6|
	55, 45, 55, 7|
	56, 4, 56, 42|
	56, 16, 56, 54|
	56, 22, 56, 60|
	56, 26, 56, 64|
	56, 27, 56, 65|
	56, 46, 56, 8|
	56, 63, 25, 56|
	56, 44, 6, 56|
	56, 45, 56, 7|
	56, 55, 56, 57|
	57, 5, 57, 43|
	57, 24, 57, 62|
	57, 27, 57, 65|
	57, 46, 57, 8|
	57, 63, 25, 57|
	57, 64, 26, 57|
	57, 44, 6, 57|
	57, 45, 7, 57|
	70, 3, 70, 41|
	70, 15, 70, 53|
	70, 16, 70, 54|
	70, 21, 70, 59|
	70, 25, 70, 63|
	70, 26, 70, 64|
	70, 30, 70, 68|
	70, 31, 70, 69|
	70, 44, 70, 6|
	70, 45, 70, 7|
	71, 4, 71, 42|
	71, 16, 71, 54|
	71, 22, 71, 60|
	71, 26, 71, 64|
	71, 27, 71, 65|
	71, 31, 71, 69|
	71, 46, 71, 8|
	71, 63, 25, 71|
	71, 44, 6, 71|
	71, 45, 71, 7|
	71, 70, 71, 72|];
SoftAtomicConstraints =  [|
34, 2|
2, 3|
3, 4|
4, 5|
5, 6|
6, 7|
7, 8|
8, 9|
9, 10|
1, 11|
12, 13|
13, 14|
14, 15|
15, 16|
16, 17|
17, 18|
18, 19|
19, 20|
20, 21|
21, 22|
11, 23|
22, 24|
24, 25|
25, 26|
26, 27|
27, 28|
28, 29|
23, 30|
30, 31|
31, 32|
32, 33|
33, 34|
54, 35|
65, 36|
36, 37|
37, 38|
50, 39|
40, 41|
41, 42|
42, 43|
44, 45|
45, 46|
67, 47|
47, 48|
39, 49|
51, 50|
76, 51|
52, 53|
53, 54|
55, 56|
56, 57|
58, 59|
59, 60|
60, 62|
63, 64|
64, 65|
69, 66|
66, 67|
61, 68|
68, 69|
70, 71|
71, 72|
43, 73|
72, 74|
74, 75|
75, 76|];
DirectSuccessors =  [];
